2256 2845
782 1261
506 2265
1050 1114
4236 4144
3610 2818
2016 4337
2376 1906
2744 3591
3849 2219
2422 2238
801 2983
1795 3527
3637 3960
2459 323
3343 3969
2984 3720
525 930
2274 4779
2837 1483
534 1078
2698 470
3112 2947
1004 4061
4060 3839
1178 4686
3001 174
4272 4475
4659 4456
911 2477
488 4024
2523 166
368 4659
1989 4742
801 1565
3250 708
377 745
2651 1574
1694 1952
4797 3922
4309 4963
865 1252
119 1086
4070 1455
2615 1897
2357 2412
1869 2559
957 147
4392 2421
1491 1749
